grafosentidotrocado.lp
min:4x25 1x13 6x12 6x21 9x76 20x63 1x31 9x67 20x43 1x35 1x41 20x34 4x75 20x36 1x64 1x53 1x46 4x52 4x57 1x14 ;
 x12 - x21  x13 - x31  x14 - x41 = 0;
 x21 - x12  x25 - x52 = -10;
 x31 - x13  x34 - x43  x35 - x53  x36 - x63 = 0;
 x41 - x14  x43 - x34  x46 - x64 = 0;
 x52 - x25  x53 - x35  x57 - x75 = 0;
 x63 - x36  x64 - x46  x67 - x76 = 10;
 x75 - x57  x76 - x67 = 0;

