grafosentidotrocado.txt
7 10 
2 6 10
1 2 6
1 3 1
1 4 1
2 5 4
3 4 20
3 5 1
3 6 20
4 6 1
5 7 4
6 7 9